Set parameter TokenServer to value "hpc-licenses.hpcc.usc.edu"
Set parameter TimeLimit to value 3600
Gurobi Optimizer version 9.5.1 build v9.5.1rc2 (linux64)
Thread count: 20 physical cores, 20 logical processors, using up to 20 threads
Optimize a model with 6007 rows, 4529 columns and 24534 nonzeros
Model fingerprint: 0xc9e2d8ae
Variable types: 4506 continuous, 23 integer (23 binary)
Coefficient statistics:
  Matrix range     [1e+00, 1e+00]
  Objective range  [3e-03, 1e+00]
  Bounds range     [1e+00, 1e+00]
  RHS range        [1e+00, 4e+01]
Found heuristic solution: objective 219.2990784
Presolve removed 1520 rows and 1515 columns
Presolve time: 0.08s
Presolved: 4487 rows, 3014 columns, 21975 nonzeros
Variable types: 2994 continuous, 20 integer (20 binary)

Root relaxation: objective 2.251218e+02, 2041 iterations, 0.10 seconds (0.09 work units)

    Nodes    |    Current Node    |     Objective Bounds      |     Work
 Expl Unexpl |  Obj  Depth IntInf | Incumbent    BestBd   Gap | It/Node Time

     0     0  225.12184    0    3  219.29908  225.12184  2.66%     -    0s
H    0     0                     220.0108582  225.12184  2.32%     -    0s
     0     0  224.82747    0    4  220.01086  224.82747  2.19%     -    0s
     0     0  224.71375    0    5  220.01086  224.71375  2.14%     -    0s
H    0     0                     224.5176254  224.71375  0.09%     -    0s

Cutting planes:
  Gomory: 2
  MIR: 100
  RLT: 12
  Relax-and-lift: 1

Explored 1 nodes (2752 simplex iterations) in 0.59 seconds (0.43 work units)
Thread count was 20 (of 20 available processors)

Solution count 3: 224.518 220.011 219.299 

Optimal solution found (tolerance 1.00e-04)
Best objective 2.245176254228e+02, best bound 2.245176254228e+02, gap 0.0000%



#########node  1
V1.9
#########node  2
0.3333333333333333,0.6666666666666667
#########node  3
1.0,0.0


Total Solving Time 0.955864667892456
obj value 224.51762542276398
Policy Regret train (Sum) 10.475852471410601
Best Treatment Found train (%) 51.800000000000004
treatment classification acc train (%) 39.6
Policy Regret test (Sum) 171.07608036179815
Best Treatment Found test (%) 53.010000000000005
treatment classification acc test (%) 41.81
